
Gurobi 10.0.1 (linux64) logging started Sun Nov 26 15:37:24 2023

Set parameter LogFile to value "ArtificialInstance/ExperimentV2/S4T4K3/BaRo/gurobi1.txt"
Gurobi Optimizer version 10.0.1 build v10.0.1rc0 (linux64)

CPU model: AMD EPYC 7H12 64-Core Processor, instruction set [SSE2|AVX|AVX2]
Thread count: 128 physical cores, 128 logical processors, using up to 32 threads

Academic license 656792 - for non-commercial use only - registered to b.___@student.vu.nl
Optimize a model with 5049 rows, 7601 columns and 26484 nonzeros
Model fingerprint: 0x1ff3f8e8
Variable types: 1 continuous, 7600 integer (7600 binary)
Coefficient statistics:
  Matrix range     [1e+00, 4e+01]
  Objective range  [1e+00, 2e+01]
  Bounds range     [1e+00, 1e+00]
  RHS range        [1e+00, 1e+00]
Found heuristic solution: objective 846.9115718
Presolve time: 0.04s
Presolved: 5049 rows, 7601 columns, 26484 nonzeros
Variable types: 1 continuous, 7600 integer (7600 binary)

Root relaxation: objective 5.382560e+01, 9173 iterations, 0.50 seconds (0.36 work units)

    Nodes    |    Current Node    |     Objective Bounds      |     Work
 Expl Unexpl |  Obj  Depth IntInf | Incumbent    BestBd   Gap | It/Node Time

     0     0   53.82560    0 1180  846.91157   53.82560  93.6%     -    0s
H    0     0                     393.4720170   53.82560  86.3%     -    0s
H    0     0                     137.4969912   53.82560  60.9%     -    0s
     0     0   60.27765    0 1588  137.49699   60.27765  56.2%     -    1s
H    0     0                     108.5533534   60.27765  44.5%     -    1s
     0     0   67.92863    0 1591  108.55335   67.92863  37.4%     -    1s
     0     0   67.92863    0 1589  108.55335   67.92863  37.4%     -    1s
H    0     0                     103.2456430   69.60444  32.6%     -    2s
H    0     0                     102.7907514   69.60444  32.3%     -    2s
     0     0   69.60444    0 1614  102.79075   69.60444  32.3%     -    2s
     0     0   69.79963    0 1577  102.79075   69.79963  32.1%     -    2s
     0     0   69.80231    0 1551  102.79075   69.80231  32.1%     -    2s
H    0     0                      94.8093822   69.80231  26.4%     -    2s
H    0     0                      90.5566055   70.62313  22.0%     -    3s
H    0     0                      90.4108253   70.62313  21.9%     -    3s
     0     0   70.62313    0 1581   90.41083   70.62313  21.9%     -    3s
     0     0   70.66769    0 1607   90.41083   70.66769  21.8%     -    3s
     0     0   70.67584    0 1466   90.41083   70.67584  21.8%     -    3s
     0     0   70.67600    0 1469   90.41083   70.67600  21.8%     -    3s
     0     0   71.25884    0 1588   90.41083   71.25884  21.2%     -    3s
     0     0   71.41599    0 1596   90.41083   71.41599  21.0%     -    3s
     0     0   71.43298    0 1506   90.41083   71.43298  21.0%     -    3s
     0     0   71.43642    0 1487   90.41083   71.43642  21.0%     -    3s
     0     0   71.78398    0 1537   90.41083   71.78398  20.6%     -    4s
     0     0   71.98215    0 1553   90.41083   71.98215  20.4%     -    4s
     0     0   72.00493    0 1526   90.41083   72.00493  20.4%     -    4s
     0     0   72.00493    0 1529   90.41083   72.00493  20.4%     -    4s
H    0     0                      86.7368134   72.31740  16.6%     -    4s
     0     0   72.31740    0 1594   86.73681   72.31740  16.6%     -    4s
H    0     0                      85.8679596   72.31740  15.8%     -    4s
     0     0   72.33736    0 1580   85.86796   72.33736  15.8%     -    4s
     0     0   72.33874    0 1575   85.86796   72.33874  15.8%     -    4s
     0     0   72.34848    0 1571   85.86796   72.34848  15.7%     -    5s
     0     0   72.34923    0 1573   85.86796   72.34923  15.7%     -    5s
     0     0   72.42714    0 1513   85.86796   72.42714  15.7%     -    5s
     0     0   72.51914    0 1523   85.86796   72.51914  15.5%     -    5s
     0     0   72.53888    0 1521   85.86796   72.53888  15.5%     -    5s
     0     0   72.53891    0 1500   85.86796   72.53891  15.5%     -    5s
     0     0   72.56171    0 1515   85.86796   72.56171  15.5%     -    6s
     0     0   72.57812    0 1594   85.86796   72.57812  15.5%     -    6s
     0     0   72.57896    0 1471   85.86796   72.57896  15.5%     -    6s
     0     0   72.67679    0 1547   85.86796   72.67679  15.4%     -    6s
     0     0   72.71542    0 1612   85.86796   72.71542  15.3%     -    6s
     0     0   72.71542    0 1603   85.86796   72.71542  15.3%     -    6s
     0     0   72.73321    0 1621   85.86796   72.73321  15.3%     -    6s
     0     0   72.73321    0 1432   85.86796   72.73321  15.3%     -    7s
     0     2   72.73321    0 1432   85.86796   72.73321  15.3%     -    9s
     7    16   73.36657    3 1319   85.86796   73.31328  14.6%  1797   10s
H  187   169                      85.1768031   75.93593  10.8%  1028   12s
H  225   185                      85.0310228   75.93593  10.7%   976   13s
   736   339     cutoff   17        85.03102   75.93593  10.7%   560   15s
H 1129   411                      84.7585957   76.85497  9.32%   482   16s
  2261   450   80.96140    8 1295   84.75860   78.79345  7.04%   415   20s
  2493   437   82.32740   10 1168   84.75860   78.79345  7.04%   411   29s
  2736   387     cutoff   15        84.75860   78.79345  7.04%   405   30s

Cutting planes:
  Gomory: 11
  MIR: 1
  Zero half: 533
  RLT: 348

Explored 3643 nodes (1351737 simplex iterations) in 31.96 seconds (33.38 work units)
Thread count was 32 (of 128 available processors)

Solution count 10: 84.7586 85.031 85.1768 ... 103.246

Optimal solution found (tolerance 1.00e-04)
Best objective 8.475859571160e+01, best bound 8.475859571160e+01, gap 0.0000%
